WARNING: for repeatability, setting FPU to use double precision
============================[ Problem Statistics ]=============================
|                                                                             |
|  Number of variables:           100                                         |
|  Number of clauses:             449                                         |
|  Parse time:                   0.00 s                                       |
|  Eliminated clauses:           0.00 Mb                                      |
|  Simplification time:          0.00 s                                       |
|                                                                             |
============================[ Search Statistics ]==============================
| Conflicts |          ORIGINAL         |          LEARNT          | Progress |
|           |    Vars  Clauses Literals |    Limit  Clauses Lit/Cl |          |
===============================================================================
|       100 |      95      427     1301 |      156      100      7 |  0.010 % |
|       250 |      95      427     1301 |      172       86      6 |  0.010 % |
===============================================================================
restarts              : 4
conflicts             : 428            (101614 /sec)
decisions             : 529            (0.00 % random) (125594 /sec)
propagations          : 9720           (2307692 /sec)
conflict literals     : 2627           (21.37 % deleted)
Memory used           : 13.00 MB
CPU time              : 0.004212 s

SATISFIABLE
